CPXPARAM_TimeLimit                               3600
CPXPARAM_Read_DataCheck                          1
CPXPARAM_MIP_Limits_Solutions                    1
Tried aggregator 1 time.
MIP Presolve eliminated 3463 rows and 0 columns.
MIP Presolve modified 5923 coefficients.
Reduced MIP has 225717 rows, 72601 columns, and 815294 nonzeros.
Reduced MIP has 3800 binaries, 0 generals, 0 SOSs, and 0 indicators.
Presolve time = 0.21 sec. (300.31 ticks)
Found incumbent of value 17293.000000 after 0.40 sec. (546.87 ticks)

Root node processing (before b&c):
  Real time             =    0.40 sec. (550.42 ticks)
Parallel b&c, 8 threads:
  Real time             =    0.00 sec. (0.00 ticks)
  Sync time (average)   =    0.00 sec.
  Wait time (average)   =    0.00 sec.
                          ------------
Total (root+branch&cut) =    0.40 sec. (550.42 ticks)
